50 389
0 1
0 2
0 8
0 10
0 11
0 16
0 17
0 22
0 25
0 26
0 27
0 28
0 33
0 36
0 38
0 41
0 44
0 47
0 49
1 2
1 3
1 5
1 15
1 19
1 31
1 32
1 33
1 35
1 41
1 43
2 3
2 5
2 7
2 9
2 15
2 20
2 21
2 22
2 23
2 25
2 28
2 30
2 31
2 32
2 36
2 41
2 47
3 4
3 7
3 24
3 27
3 34
3 38
3 41
3 43
4 8
4 10
4 12
4 14
4 15
4 20
4 24
4 25
4 26
4 27
4 30
4 33
4 34
4 37
4 40
4 45
4 47
4 48
4 49
5 6
5 14
5 15
5 17
5 20
5 23
5 24
5 25
5 28
5 29
5 30
5 34
5 35
5 36
5 37
5 41
5 49
6 10
6 15
6 21
6 23
6 27
6 28
6 32
6 34
6 35
6 37
6 39
6 41
6 42
7 9
7 10
7 13
7 15
7 18
7 20
7 23
7 24
7 29
7 31
7 32
7 36
7 40
7 42
7 44
7 45
8 12
8 13
8 17
8 18
8 22
8 23
8 27
8 34
8 37
8 43
8 44
8 45
8 48
8 49
9 18
9 20
9 23
9 25
9 29
9 31
9 35
9 38
9 41
9 42
9 49
10 11
10 20
10 23
10 24
10 42
10 43
11 13
11 19
11 21
11 23
11 25
11 29
11 30
11 31
11 32
11 33
11 37
11 38
11 39
11 41
11 42
11 44
11 46
11 49
12 18
12 22
12 30
12 32
12 34
12 35
12 39
12 46
12 47
13 18
13 20
13 23
13 26
13 29
13 31
13 33
13 34
13 41
13 42
13 43
13 46
13 48
13 49
14 17
14 20
14 31
14 40
14 42
14 46
14 48
15 17
15 18
15 21
15 22
15 24
15 25
15 28
15 31
15 32
15 34
15 39
15 43
15 44
15 48
15 49
16 20
16 21
16 25
16 27
16 28
16 29
16 32
16 34
16 36
16 44
16 45
17 18
17 22
17 28
17 29
17 30
17 32
17 33
17 37
17 43
17 45
17 47
18 23
18 26
18 27
18 28
18 34
18 37
18 38
18 39
18 40
18 41
18 43
18 44
18 45
18 48
19 20
19 21
19 22
19 27
19 29
19 30
19 32
19 35
19 37
19 41
19 44
19 45
19 46
19 48
20 22
20 23
20 27
20 33
20 35
20 36
20 38
20 41
20 42
20 47
20 48
20 49
21 30
21 31
21 36
21 40
21 41
21 42
22 28
22 33
22 35
22 41
22 43
22 46
23 24
23 27
23 28
23 37
23 40
23 42
23 44
24 25
24 26
24 30
24 32
24 38
24 40
24 47
25 32
25 34
25 35
25 38
25 42
25 43
25 45
25 47
25 48
26 29
26 34
26 36
26 37
26 39
26 42
26 49
27 29
27 30
27 31
27 33
27 34
27 35
27 48
28 34
28 36
28 38
28 40
28 42
28 43
28 44
29 33
29 38
29 39
29 40
29 41
29 47
30 41
30 42
30 43
30 48
30 49
31 40
31 43
31 48
32 33
32 34
32 37
32 38
32 39
32 43
32 49
33 39
33 43
33 45
34 37
34 38
34 40
34 44
34 46
35 38
35 41
35 43
36 37
36 38
36 42
36 44
37 38
37 41
37 42
37 45
37 47
38 46
38 48
39 46
40 45
40 47
41 46
41 47
42 45
43 46
43 48
43 49
44 46
44 48
45 48
45 49
47 48
